TCS_Benchmarks/redos_fix/snort3_output_distinct_2134_2133_12_0.txt
([^\n\r]*)([^\n\r]*)
([^\n\r]*)([rR][oO][oO][tT][^\n\r]*[kK][iI][tT])([^\n\r]*)